p cnf 39 4
-61 -108 -109 -115 -121 -122 -125 -126 -140 -143 -173 -174 -230 -235 -249 -250 -252 -253 -254 -325 -345 0
-109 -115 -116 -122 -123 -128 -136 -140 -165 -173 -174 -225 -237 -242 -245 -247 -249 -251 -253 -305 -345 0
-115 -116 -118 -121 -122 -123 -125 -126 -127 -128 -136 -140 -165 -173 -174 -225 -234 -242 -245 -249 -251 -253 -254 -305 -327 0
-123 -128 -133 -136 -165 -173 -174 -225 -245 -247 -249 -251 -253 -305 -312 0
